
Gurobi 10.0.1 (linux64) logging started Wed May 31 01:57:30 2023

Set parameter LogFile to value "logFiles/A-2L-C/A-2L-6U-8F-15V-120D-varprod.log"
Gurobi Optimizer version 10.0.1 build v10.0.1rc0 (linux64)

CPU model: Intel(R) Xeon(R) Gold 5115 CPU @ 2.40GHz, instruction set [SSE2|AVX|AVX2|AVX512]
Thread count: 20 physical cores, 40 logical processors, using up to 20 threads

Optimize a model with 31710 rows, 345312 columns and 1772479 nonzeros
Model fingerprint: 0xebbe32d7
Variable types: 1290 continuous, 344022 integer (344022 binary)
Coefficient statistics:
  Matrix range     [1e+00, 2e+05]
  Objective range  [4e+01, 3e+07]
  Bounds range     [1e+00, 1e+00]
  RHS range        [1e+00, 3e+06]
Presolve removed 18596 rows and 17316 columns (presolve time = 5s) ...
Presolve removed 18564 rows and 17284 columns
Presolve time: 5.35s
Presolved: 13146 rows, 328028 columns, 1477239 nonzeros
Variable types: 1294 continuous, 326734 integer (326721 binary)
Deterministic concurrent LP optimizer: primal simplex, dual simplex, and barrier
Showing barrier log only...

Root barrier log...

Ordering time: 0.48s

Barrier statistics:
 AA' NZ     : 7.797e+05
 Factor NZ  : 6.452e+06 (roughly 200 MB of memory)
 Factor Ops : 1.103e+10 (less than 1 second per iteration)
 Threads    : 17

                  Objective                Residual
Iter       Primal          Dual         Primal    Dual     Compl     Time
   0  -1.84191725e+16  1.55412736e+12  2.38e+09 5.95e+04  1.49e+11     8s
   1  -4.08368590e+15  2.53814776e+12  5.31e+08 3.04e+05  3.34e+10     9s
   2  -4.17298266e+14  2.59398249e+12  5.47e+07 1.63e-09  3.45e+09     9s
   3  -2.73139518e+13  1.53408348e+12  3.58e+06 2.10e-09  2.29e+08     9s
   4  -1.32209587e+13  6.37748784e+11  1.73e+06 1.86e-09  1.10e+08     9s
   5  -3.45746231e+12  4.77972252e+11  4.52e+05 1.63e-09  2.92e+07     9s
   6  -1.71404956e+12  4.72241592e+11  2.24e+05 1.63e-09  1.49e+07     9s
   7  -4.53669620e+11  4.02175821e+11  5.94e+04 1.16e-09  4.35e+06    10s
   8  -2.92771023e+11  2.60450416e+11  3.84e+04 9.31e-10  2.77e+06    10s
   9  -1.47037001e+11  1.93968677e+11  1.93e+04 9.31e-10  1.46e+06    10s
  10  -6.38051367e+10  9.82215699e+10  8.45e+03 1.16e-09  6.13e+05    10s
  11  -2.85132359e+10  7.52271984e+10  3.84e+03 2.42e-09  3.13e+05    10s
  12  -5.48716899e+09  4.05224477e+10  8.19e+02 2.07e-09  9.94e+04    10s
  13  -2.46129097e+09  1.89841263e+10  4.38e+02 3.43e-09  4.61e+04    11s
  14   6.78590197e+07  7.91894659e+09  1.24e+02 3.84e-09  1.55e+04    11s
  15   4.97168903e+08  5.17572802e+09  7.14e+01 3.73e-09  9.13e+03    11s
  16   8.30011722e+08  4.88609053e+09  3.12e+01 3.82e-09  7.06e+03    11s
  17   8.94702964e+08  3.43235626e+09  2.36e+01 9.14e-09  4.56e+03    11s
  18   9.19633332e+08  3.10188418e+09  2.09e+01 1.07e-08  3.95e+03    12s
  19   9.47241567e+08  2.72357959e+09  1.80e+01 1.67e-08  3.26e+03    12s
  20   9.94938021e+08  2.18678133e+09  1.28e+01 1.35e-08  2.22e+03    12s
  21   1.01732716e+09  1.92337061e+09  1.06e+01 1.50e-08  1.71e+03    12s
  22   1.04741816e+09  1.69149430e+09  7.64e+00 1.49e-08  1.21e+03    13s
  23   1.08685502e+09  1.52009018e+09  4.90e+00 1.23e-08  7.95e+02    13s
  24   1.09304019e+09  1.40033270e+09  4.31e+00 1.37e-08  5.75e+02    13s
  25   1.11271413e+09  1.34986012e+09  2.64e+00 1.26e-08  4.22e+02    13s
  26   1.12307043e+09  1.25427646e+09  1.76e+00 1.49e-08  2.30e+02    14s
  27   1.13297105e+09  1.21553939e+09  1.05e+00 1.68e-08  1.39e+02    14s
  28   1.13584708e+09  1.19814011e+09  8.41e-01 1.36e-08  1.03e+02    14s
  29   1.13751740e+09  1.18508863e+09  7.40e-01 1.55e-08  7.81e+01    14s
  30   1.14082481e+09  1.18087104e+09  5.52e-01 1.47e-08  6.48e+01    14s
  31   1.14249917e+09  1.17416477e+09  4.67e-01 1.37e-08  5.07e+01    15s
  32   1.14689883e+09  1.17030857e+09  2.56e-01 1.66e-08  3.68e+01    15s
  33   1.14793295e+09  1.16804684e+09  2.15e-01 1.93e-08  3.15e+01    15s
  34   1.15062564e+09  1.16582385e+09  1.28e-01 1.86e-08  2.36e+01    15s
  35   1.15195381e+09  1.16360817e+09  9.32e-02 1.49e-08  1.81e+01    16s
  36   1.15265277e+09  1.16294543e+09  7.55e-02 1.55e-08  1.59e+01    16s
  37   1.15383178e+09  1.16113839e+09  5.41e-02 1.34e-08  1.13e+01    16s
  38   1.15404343e+09  1.16007384e+09  5.05e-02 1.54e-08  9.32e+00    16s
  39   1.15453961e+09  1.15963586e+09  4.29e-02 1.49e-08  7.88e+00    16s
  40   1.15527100e+09  1.15930232e+09  3.14e-02 1.49e-08  6.22e+00    17s
  41   1.15593695e+09  1.15905865e+09  2.14e-02 1.53e-08  4.81e+00    17s
  42   1.15637352e+09  1.15879846e+09  1.51e-02 1.75e-08  3.73e+00    17s
  43   1.15665950e+09  1.15855246e+09  1.15e-02 1.96e-08  2.91e+00    17s
  44   1.15683327e+09  1.15835249e+09  9.26e-03 1.72e-08  2.34e+00    17s
  45   1.15703057e+09  1.15816663e+09  6.79e-03 1.40e-08  1.75e+00    18s
  46   1.15724325e+09  1.15797114e+09  4.19e-03 1.54e-08  1.12e+00    18s
  47   1.15734160e+09  1.15782852e+09  2.98e-03 1.49e-08  7.51e-01    18s
  48   1.15741954e+09  1.15775693e+09  2.07e-03 1.69e-08  5.20e-01    18s
  49   1.15748553e+09  1.15770461e+09  1.30e-03 1.32e-08  3.38e-01    19s
  50   1.15752818e+09  1.15766657e+09  8.08e-04 1.86e-08  2.14e-01    19s
  51   1.15755723e+09  1.15763789e+09  4.86e-04 1.38e-08  1.25e-01    19s
  52   1.15758721e+09  1.15761564e+09  1.56e-04 1.49e-08  4.39e-02    19s
  53   1.15760045e+09  1.15760942e+09  2.45e-05 1.34e-08  1.38e-02    19s
  54   1.15760259e+09  1.15760471e+09  1.17e-05 2.24e-08  3.25e-03    19s
  55   1.15760281e+09  1.15760291e+09  5.53e-07 2.21e-08  1.59e-04    19s
  56   1.15760283e+09  1.15760283e+09  5.15e-09 1.49e-08  4.52e-07    20s
  57   1.15760283e+09  1.15760283e+09  5.47e-09 1.52e-08  5.66e-11    20s

Barrier solved model in 57 iterations and 19.80 seconds (18.43 work units)
Optimal objective 1.15760283e+09


Root crossover log...

    9740 DPushes remaining with DInf 0.0000000e+00                20s
       0 DPushes remaining with DInf 0.0000000e+00                20s

    1053 PPushes remaining with PInf 0.0000000e+00                20s
       0 PPushes remaining with PInf 0.0000000e+00                20s

  Push phase complete: Pinf 0.0000000e+00, Dinf 8.9125837e+02     20s


Root simplex log...

Iteration    Objective       Primal Inf.    Dual Inf.      Time
   10784    1.1576028e+09   0.000000e+00   8.912584e+02     20s
   10786    1.1576028e+09   0.000000e+00   0.000000e+00     20s
Concurrent spin time: 0.02s

Solved with barrier
   10786    1.1576028e+09   0.000000e+00   0.000000e+00     20s

Root relaxation: objective 1.157603e+09, 10786 iterations, 13.96 seconds (10.11 work units)

    Nodes    |    Current Node    |     Objective Bounds      |     Work
 Expl Unexpl |  Obj  Depth IntInf | Incumbent    BestBd   Gap | It/Node Time

     0     0 1.1576e+09    0  395          - 1.1576e+09      -     -   23s
     0     0 1.1575e+09    0  397          - 1.1575e+09      -     -   50s
     0     0 1.1573e+09    0  349          - 1.1573e+09      -     -   70s
     0     0 1.1569e+09    0  304          - 1.1569e+09      -     -   79s
     0     0 1.1569e+09    0  326          - 1.1569e+09      -     -   80s
     0     0 1.1569e+09    0  311          - 1.1569e+09      -     -   89s
H    0     0                    1.114886e+09 1.1569e+09  3.77%     -  119s
H    0     0                    1.115007e+09 1.1569e+09  3.76%     -  156s
     0     0 1.1569e+09    0  322 1.1150e+09 1.1569e+09  3.75%     -  163s
     0     0 1.1568e+09    0  284 1.1150e+09 1.1568e+09  3.75%     -  170s
     0     0 1.1568e+09    0  289 1.1150e+09 1.1568e+09  3.75%     -  171s
     0     0 1.1568e+09    0  347 1.1150e+09 1.1568e+09  3.75%     -  178s
H    0     0                    1.145174e+09 1.1568e+09  1.02%     -  377s
     0     0 1.1568e+09    0  291 1.1452e+09 1.1568e+09  1.02%     -  383s
     0     0 1.1568e+09    0  283 1.1452e+09 1.1568e+09  1.02%     -  384s
     0     0 1.1568e+09    0  289 1.1452e+09 1.1568e+09  1.02%     -  385s
     0     0 1.1568e+09    0  285 1.1452e+09 1.1568e+09  1.02%     -  386s
     0     0 1.1568e+09    0  292 1.1452e+09 1.1568e+09  1.01%     -  399s
     0     0 1.1568e+09    0  295 1.1452e+09 1.1568e+09  1.01%     -  458s
     0     0 1.1568e+09    0  292 1.1452e+09 1.1568e+09  1.01%     -  460s
     0     0 1.1568e+09    0  274 1.1452e+09 1.1568e+09  1.01%     -  463s
     0     0 1.1568e+09    0  290 1.1452e+09 1.1568e+09  1.01%     -  471s
     0     0 1.1568e+09    0  288 1.1452e+09 1.1568e+09  1.01%     -  473s
     0     0 1.1568e+09    0  296 1.1452e+09 1.1568e+09  1.01%     -  474s
     0     0 1.1568e+09    0  302 1.1452e+09 1.1568e+09  1.01%     -  479s
     0     0 1.1568e+09    0  290 1.1452e+09 1.1568e+09  1.01%     -  482s
     0     0 1.1568e+09    0  295 1.1452e+09 1.1568e+09  1.01%     -  489s
     0     0 1.1568e+09    0  306 1.1452e+09 1.1568e+09  1.01%     -  494s
     0     0 1.1568e+09    0  302 1.1452e+09 1.1568e+09  1.01%     -  495s
     0     0 1.1568e+09    0  288 1.1452e+09 1.1568e+09  1.01%     -  498s
     0     0 1.1568e+09    0  307 1.1452e+09 1.1568e+09  1.01%     -  504s
     0     0 1.1568e+09    0  309 1.1452e+09 1.1568e+09  1.01%     -  504s
     0     0 1.1568e+09    0  308 1.1452e+09 1.1568e+09  1.01%     -  506s
     0     0 1.1568e+09    0  299 1.1452e+09 1.1568e+09  1.01%     -  513s
     0     2 1.1567e+09    0  294 1.1452e+09 1.1567e+09  1.01%     -  552s
     1     4 1.1567e+09    1  312 1.1452e+09 1.1567e+09  1.01% 11620  574s
     3     8 1.1567e+09    2  298 1.1452e+09 1.1567e+09  1.01%  6029  587s
     7    16 1.1567e+09    3  290 1.1452e+09 1.1567e+09  1.01%  3281  609s
    15    32 1.1567e+09    4  294 1.1452e+09 1.1567e+09  1.01%  2356  645s
    31    52 1.1567e+09    5  320 1.1452e+09 1.1567e+09  1.01%  1964  728s
H   35    52                    1.146110e+09 1.1567e+09  0.93%  1823  728s
H   38    52                    1.146158e+09 1.1567e+09  0.92%  1752  729s
H   51    72                    1.146228e+09 1.1567e+09  0.91%  1519 1118s
H   52    72                    1.147087e+09 1.1567e+09  0.84%  1501 1119s
H   53    72                    1.147505e+09 1.1567e+09  0.80%  1485 1119s
    71    92 1.1567e+09    7  315 1.1475e+09 1.1567e+09  0.80%  1328 1136s
    91   112 1.1567e+09    8  307 1.1475e+09 1.1567e+09  0.80%  1181 1273s
   111   148 1.1563e+09    8  386 1.1475e+09 1.1567e+09  0.80%  1170 1330s
   147   183 1.1567e+09    9  308 1.1475e+09 1.1567e+09  0.80%  1043 1402s
   182   219 1.1567e+09   10  300 1.1475e+09 1.1567e+09  0.80%  1131 1460s
   218   255 1.1567e+09   11  319 1.1475e+09 1.1567e+09  0.80%  1182 1508s
   254   294 1.1567e+09   11  289 1.1475e+09 1.1567e+09  0.80%  1214 1551s
   293   335 1.1565e+09   12  295 1.1475e+09 1.1567e+09  0.80%  1192 1577s
   334   381 1.1565e+09   13  295 1.1475e+09 1.1567e+09  0.80%  1113 1620s
   380   426 1.1565e+09   15  290 1.1475e+09 1.1567e+09  0.80%  1074 1648s
   427   465 1.1565e+09   16  302 1.1475e+09 1.1567e+09  0.80%  1009 1696s
   471   509 1.1565e+09   18  302 1.1475e+09 1.1567e+09  0.80%   979 1721s
   521   553 1.1565e+09   20  300 1.1475e+09 1.1567e+09  0.80%   932 1749s
   565   608 1.1565e+09   21  275 1.1475e+09 1.1567e+09  0.80%   901 1779s
   621   666 1.1565e+09   22  283 1.1475e+09 1.1567e+09  0.80%   855 1810s
   680   729 1.1565e+09   25  275 1.1475e+09 1.1567e+09  0.80%   816 1844s
   744   785 1.1565e+09   27  277 1.1475e+09 1.1567e+09  0.80%   773 1874s
   808   855 1.1565e+09   30  286 1.1475e+09 1.1567e+09  0.80%   739 1906s
   883   932 1.1565e+09   31  282 1.1475e+09 1.1567e+09  0.80%   701 1949s
   962  1022 1.1565e+09   33  265 1.1475e+09 1.1567e+09  0.80%   680 1980s
  1057  1114 1.1565e+09   38  294 1.1475e+09 1.1567e+09  0.80%   647 2012s
H 1091  1114                    1.147505e+09 1.1567e+09  0.80%   637 2013s
  1152  1207 1.1565e+09   45  297 1.1475e+09 1.1567e+09  0.80%   617 2051s
  1247  1313 1.1565e+09   51  278 1.1475e+09 1.1567e+09  0.80%   600 2082s
  1359  1332 1.1565e+09   53  270 1.1475e+09 1.1567e+09  0.80%   578 2329s
H 1361  1332                    1.147554e+09 1.1567e+09  0.80%   578 2329s
H 1365  1331                    1.147973e+09 1.1567e+09  0.76%   578 2330s
  1379  1436 1.1565e+09   54  297 1.1480e+09 1.1567e+09  0.76%   574 2367s
  1493  1551 1.1565e+09   57  278 1.1480e+09 1.1567e+09  0.76%   558 2404s
  1624  1682 1.1565e+09   61  276 1.1480e+09 1.1567e+09  0.76%   538 2439s
  1778  1811 1.1565e+09   63  291 1.1480e+09 1.1567e+09  0.76%   516 2476s
  1937  1959 1.1565e+09   66  286 1.1480e+09 1.1567e+09  0.76%   498 2515s
  2110  2093 1.1564e+09   70  242 1.1480e+09 1.1567e+09  0.76%   480 2555s
  2266  2249 1.1564e+09   73  246 1.1480e+09 1.1567e+09  0.76%   469 2593s
  2441  2433 1.1564e+09   78  238 1.1480e+09 1.1567e+09  0.76%   455 2633s
  2625  2633 1.1564e+09   86  211 1.1480e+09 1.1567e+09  0.76%   442 2674s
  2825  2849 1.1564e+09   92  232 1.1480e+09 1.1567e+09  0.76%   431 2716s
  3046  3056 1.1564e+09  111  215 1.1480e+09 1.1567e+09  0.76%   420 2757s
  3259  3282 1.1564e+09  119  214 1.1480e+09 1.1567e+09  0.76%   411 2803s
  3488  3535 1.1564e+09  127  205 1.1480e+09 1.1567e+09  0.76%   404 2847s
  3748  3811 1.1564e+09  131  235 1.1480e+09 1.1567e+09  0.76%   392 2896s
  4042  4155 1.1563e+09  136  206 1.1480e+09 1.1567e+09  0.76%   379 2943s
  4403  4498 1.1563e+09  149  189 1.1480e+09 1.1567e+09  0.76%   362 3021s
  4793  4826 1.1563e+09  158  191 1.1480e+09 1.1567e+09  0.76%   349 3075s
  5129  5213 1.1563e+09  176  194 1.1480e+09 1.1567e+09  0.76%   340 3129s
  5540  5632 1.1563e+09  193  213 1.1480e+09 1.1567e+09  0.76%   328 3183s
  5980  6001 1.1562e+09  204  160 1.1480e+09 1.1567e+09  0.76%   316 3237s
  6380  6450 1.1562e+09  219  159 1.1480e+09 1.1567e+09  0.76%   308 3296s
  6866  7014 1.1562e+09  236  162 1.1480e+09 1.1567e+09  0.76%   298 3357s
  7437  7611 1.1562e+09  267  176 1.1480e+09 1.1567e+09  0.76%   287 3417s
  8034  8169 1.1561e+09  300  189 1.1480e+09 1.1567e+09  0.76%   276 3480s
  8592  8751 1.1561e+09  331  185 1.1480e+09 1.1567e+09  0.76%   269 3547s
  9174  9411 1.1560e+09  382  185 1.1480e+09 1.1567e+09  0.76%   262 3615s
  9834 10129 1.1560e+09  424  185 1.1480e+09 1.1567e+09  0.76%   254 3683s
 10554 10945 1.1560e+09  468  175 1.1480e+09 1.1567e+09  0.76%   246 3751s
 11379 11734 1.1560e+09  520  152 1.1480e+09 1.1567e+09  0.76%   236 3852s

Cutting planes:
  Cover: 82
  Implied bound: 162
  Clique: 2
  MIR: 54
  Flow cover: 150
  Network: 14
  RLT: 18
  Relax-and-lift: 4

Explored 12198 nodes (2873314 simplex iterations) in 10800.27 seconds (10921.97 work units)
Thread count was 20 (of 40 available processors)

Solution count 10: 1.14797e+09 1.14755e+09 1.1475e+09 ... 1.11501e+09

Time limit reached
Best objective 1.147972612416e+09, best bound 1.156714431548e+09, gap 0.7615%
